(set-logic QF_S)
(declare-fun var0 () String)
(assert (RegexIn var0 (RegexConcat (RegexPlus (RegexStar (Str2Reg "00"))) (RegexConcat (RegexUnion (RegexStar (Str2Reg "1")) (RegexStar (Str2Reg "2"))) (RegexConcat (RegexPlus (RegexStar (Str2Reg "33"))) (RegexConcat (RegexUnion (RegexPlus (Str2Reg "444")) (RegexPlus (Str2Reg "5"))) (RegexConcat (RegexUnion (RegexPlus (Str2Reg "6")) (RegexPlus (Str2Reg "77"))) (RegexConcat (RegexPlus (RegexPlus (Str2Reg "8"))) (RegexConcat (RegexStar (RegexUnion (Str2Reg "9") (Str2Reg "aa"))) (RegexConcat (RegexPlus (RegexPlus (Str2Reg "b"))) (RegexConcat (RegexStar (RegexStar (Str2Reg "c"))) (RegexConcat (RegexUnion (RegexUnion (Str2Reg "ddd") (Str2Reg "ee")) (RegexUnion (Str2Reg "fff") (Str2Reg "gg"))) (RegexConcat (RegexStar (RegexStar (Str2Reg "hhh"))) (RegexConcat (RegexPlus (RegexPlus (Str2Reg "i"))) (RegexConcat (RegexPlus (RegexStar (Str2Reg "j"))) (RegexConcat (RegexPlus (RegexStar (Str2Reg "kk"))) (RegexConcat (RegexUnion (RegexPlus (Str2Reg "ll")) (RegexPlus (Str2Reg "mmm"))) (RegexConcat (RegexStar (RegexPlus (Str2Reg "nn"))) (RegexConcat (RegexPlus (RegexPlus (Str2Reg "oo"))) (RegexConcat (RegexStar (RegexUnion (Str2Reg "ppp") (Str2Reg "q"))) (RegexConcat (RegexPlus (RegexPlus (Str2Reg "r"))) (RegexConcat (RegexPlus (RegexUnion (Str2Reg "sss") (Str2Reg "tt"))) (RegexConcat (RegexPlus (RegexStar (Str2Reg "uu"))) (RegexConcat (RegexStar (RegexUnion (Str2Reg "vvv") (Str2Reg "ww"))) (RegexConcat (RegexStar (RegexPlus (Str2Reg "x"))) (RegexConcat (RegexPlus (RegexPlus (Str2Reg "yyy"))) (RegexConcat (RegexStar (RegexStar (Str2Reg "z"))) (RegexConcat (RegexStar (RegexUnion (Str2Reg "A") (Str2Reg "BBB"))) (RegexConcat (RegexPlus (RegexUnion (Str2Reg "C") (Str2Reg "DD"))) (RegexConcat (RegexPlus (RegexUnion (Str2Reg "EEE") (Str2Reg "FFF"))) (RegexConcat (RegexStar (RegexStar (Str2Reg "GGG"))) (RegexConcat (RegexPlus (RegexUnion (Str2Reg "HHH") (Str2Reg "II"))) (RegexConcat (RegexStar (RegexPlus (Str2Reg "JJ"))) (RegexConcat (RegexStar (RegexStar (Str2Reg "KKK"))) (RegexConcat (RegexStar (RegexUnion (Str2Reg "L") (Str2Reg "M"))) (RegexConcat (RegexStar (RegexUnion (Str2Reg "NN") (Str2Reg "OO"))) (RegexConcat (RegexPlus (RegexUnion (Str2Reg "PPP") (Str2Reg "QQQ"))) (RegexConcat (RegexUnion (RegexUnion (Str2Reg "RRR") (Str2Reg "S")) (RegexUnion (Str2Reg "TTT") (Str2Reg "UUU"))) (RegexConcat (RegexPlus (RegexUnion (Str2Reg "V") (Str2Reg "W"))) (RegexConcat (RegexPlus (RegexStar (Str2Reg "XX"))) (RegexConcat (RegexPlus (RegexPlus (Str2Reg "Y"))) (RegexConcat (RegexUnion (RegexUnion (Str2Reg "ZZ") (Str2Reg "!!")) (RegexUnion (Str2Reg "\"\"\"") (Str2Reg "##"))) (RegexConcat (RegexPlus (RegexStar (Str2Reg "$"))) (RegexConcat (RegexPlus (RegexStar (Str2Reg "%"))) (RegexConcat (RegexStar (RegexUnion (Str2Reg "&") (Str2Reg "''"))) (RegexConcat (RegexStar (RegexPlus (Str2Reg "(("))) (RegexConcat (RegexStar (RegexPlus (Str2Reg ")))"))) (RegexConcat (RegexStar (RegexUnion (Str2Reg "***") (Str2Reg "+"))) (RegexConcat (RegexPlus (RegexUnion (Str2Reg ",,,") (Str2Reg "--"))) (RegexConcat (RegexPlus (RegexStar (Str2Reg "..."))) (RegexConcat (RegexUnion (RegexUnion (Str2Reg "/") (Str2Reg "::")) (RegexUnion (Str2Reg ";;;") (Str2Reg "<<<"))) (RegexConcat (RegexUnion (RegexStar (Str2Reg "=")) (RegexStar (Str2Reg ">>>"))) (RegexConcat (RegexUnion (RegexPlus (Str2Reg "??")) (RegexPlus (Str2Reg "@"))) (RegexConcat (RegexUnion (RegexUnion (Str2Reg "[[[") (Str2Reg "\\\\")) (RegexUnion (Str2Reg "]]]") (Str2Reg "^^^"))) (RegexConcat (RegexStar (RegexStar (Str2Reg "_"))) (RegexConcat (RegexStar (RegexUnion (Str2Reg "```") (Str2Reg "{{{"))) (RegexConcat (RegexStar (RegexStar (Str2Reg "|"))) (RegexConcat (RegexPlus (RegexStar (Str2Reg "}}}"))) (RegexStar (RegexUnion (Str2Reg "~~") (Str2Reg "00")))))))))))))))))))))))))))))))))))))))))))))))))))))))))))))
(check-sat)